28 95 40 21 31 12 77 30 17 88 21 91 40 60 44 60 86 16 91 39 29 48 16 72 29 
39 75 88 60 87 58 12 34 11 64 25 52 93 81 67 50 39 46 73 34 62 44 66 12 48 
11 97 28 72 34 12 13 36 90 40 18 52 92 30 36 55 16 85 43 11 98 51 22 87 94 
74 34 51 31 89 36 83 55 97 43 29 64 51 91 47 15 74 47 78 50 88 97 18 44 31 
99 76 17 97 95 12 41 60 28 78 63 19 54 26 44 65 69 48 75 56 14 39 50 98 49 
686.00
